unsat
(:cnf-encoding-aux-vars   5
 :eliminated-applications 4
 :eliminated-vars         40
 :max-memory              18.24
 :memory                  18.05
 :nlsat-conflicts         9
 :nlsat-decisions         10
 :nlsat-propagations      35
 :num-allocs              63416
 :rlimit-count            16967
 :time                    0.01
 :total-time              0.02)
